POSCAR_PTOPZO_n5_longperiod
 1.000000
   39.9059024478248929    0.0000000000000000    0.0000000000000000
    0.0000000000000000    5.7614975663447057    0.0000000000000000
   -0.1061995134874362    0.0000000000000000   17.4295885115208371
   Pb   Ti   Zr   O 
    60    30    30   180
Direct
    0.9912628826717196    0.7548942583956162    0.9810903187944007    Pb001
    0.8963740931314064    0.7571264954814509    0.9818705433006372    Pb002
    0.8006634003446393    0.7534965203898594    0.9827847505972329    Pb003
    0.7048085017640631    0.7489679472462427    0.9845156889645494    Pb004
    0.6090709357047430    0.7471742098946947    0.9854775920622600    Pb005
    0.5133418199885966    0.7530424445139658    0.9873217193606365    Pb006
    0.4094293869067512    0.7483624850906594    0.9895363977996681    Pb007
    0.3053587838548850    0.7497157300826771    0.9870767528504629    Pb008
    0.2011709410585922    0.7495215492454008    0.9856873624497098    Pb009
    0.0970483814101684    0.7510767980879365    0.9843156066202852    Pb010
    0.9930046851205745    0.2302241138204124    0.1489579143626614    Pb011
    0.8958462322334100    0.1875746324506125    0.1483235598565429    Pb012
    0.8004945235838150    0.1615942396067780    0.1504178679169499    Pb013
    0.7046087700666916    0.1580675571357730    0.1519750288175317    Pb014
    0.6091743924065725    0.1650877268544377    0.1527334859238323    Pb015
    0.5146920774379566    0.1895094227531970    0.1548866536407090    Pb016
    0.4095429433858229    0.2363872934061035    0.1553633712878622    Pb017
    0.3054475776786559    0.2454667599660141    0.1537320478396254    Pb018
    0.2011897033100638    0.2475180080984032    0.1524346775068821    Pb019
    0.0966659391245059    0.2421472540087066    0.1505554790588732    Pb020
    0.9916371514941176    0.7140548160435571    0.3145510443887146    Pb021
    0.8962588136679059    0.6929453957416385    0.3147869234244070    Pb022
    0.8001572095909424    0.6925149511585786    0.3167778564473949    Pb023
    0.7044699900317823    0.6969870045221072    0.3178611181764878    Pb024
    0.6089953795583867    0.7050621866874636    0.3191412357449436    Pb025
    0.5144884594172368    0.7290708333298994    0.3209077738677876    Pb026
    0.4098370545572507    0.7444990090180497    0.3222868236067171    Pb027
    0.3053971503435092    0.7474966157292968    0.3205237348433910    Pb028
    0.2012538163805715    0.7462518319005156    0.3191791826335474    Pb029
    0.0967510678093504    0.7414127076677062    0.3177094164534893    Pb030
    0.9912628826717196    0.2451057416043838    0.4810903187944006    Pb031
    0.8963740931314064    0.2428735045185490    0.4818705433006371    Pb032
    0.8006634003446393    0.2465034796101406    0.4827847505972329    Pb033
    0.7048085017640631    0.2510320527537572    0.4845156889645494    Pb034
    0.6090709357047430    0.2528257901053052    0.4854775920622600    Pb035
    0.5133418199885966    0.2469575554860341    0.4873217193606365    Pb036
    0.4094293869067512    0.2516375149093406    0.4895363977996680    Pb037
    0.3053587838548850    0.2502842699173228    0.4870767528504629    Pb038
    0.2011709410585922    0.2504784507545991    0.4856873624497097    Pb039
    0.0970483814101684    0.2489232019120635    0.4843156066202851    Pb040
    0.9930046851205745    0.7697758861795876    0.6489579143626614    Pb041
    0.8958462322334100    0.8124253675493875    0.6483235598565429    Pb042
    0.8004945235838150    0.8384057603932220    0.6504178679169499    Pb043
    0.7046087700666916    0.8419324428642270    0.6519750288175317    Pb044
    0.6091743924065725    0.8349122731455623    0.6527334859238323    Pb045
    0.5146920774379566    0.8104905772468030    0.6548866536407090    Pb046
    0.4095429433858229    0.7636127065938965    0.6553633712878622    Pb047
    0.3054475776786559    0.7545332400339859    0.6537320478396254    Pb048
    0.2011897033100638    0.7524819919015968    0.6524346775068821    Pb049
    0.0966659391245059    0.7578527459912934    0.6505554790588732    Pb050
    0.9916371514941176    0.2859451839564428    0.8145510443887147    Pb051
    0.8962588136679059    0.3070546042583615    0.8147869234244070    Pb052
    0.8001572095909424    0.3074850488414213    0.8167778564473949    Pb053
    0.7044699900317823    0.3030129954778928    0.8178611181764879    Pb054
    0.6089953795583867    0.2949378133125364    0.8191412357449437    Pb055
    0.5144884594172368    0.2709291666701005    0.8209077738677877    Pb056
    0.4098370545572507    0.2555009909819503    0.8222868236067171    Pb057
    0.3053971503435092    0.2525033842707031    0.8205237348433911    Pb058
    0.2012538163805715    0.2537481680994844    0.8191791826335475    Pb059
    0.0967510678093504    0.2585872923322938    0.8177094164534893    Pb060
    0.9426495578914853    0.2393122802778436    0.9897463702977731    Ti001
    0.8466439275624964    0.2384109362198572    0.9907699678908770    Ti002
    0.7508295825908533    0.2316538050892945    0.9926125872666489    Ti003
    0.6549761900370044    0.2295056612608590    0.9937766374297325    Ti004
    0.5590313811136269    0.2354992606491564    0.9940552834128979    Ti005
    0.9427831009150722    0.7102332578314403    0.1549126463612964    Ti006
    0.8469006291514987    0.6841980326126276    0.1569139125873704    Ti007
    0.7510514014380121    0.6783018682265052    0.1576856147240946    Ti008
    0.6550338823871868    0.6814677067288244    0.1587529162257013    Ti009
    0.5590278669688118    0.6929324656401121    0.1597642952190199    Ti010
    0.9425620990912122    0.2127865484544813    0.3205462419141512    Ti011
    0.8468832642568174    0.2138047450241984    0.3232467676620772    Ti012
    0.7508262927183438    0.2158081370077483    0.3247604618494718    Ti013
    0.6549365732311117    0.2213639882155221    0.3263833225072688    Ti014
    0.5587252369505293    0.2362518486844962    0.3281744274064025    Ti015
    0.9426495578914853    0.7606877197221564    0.4897463702977731    Ti016
    0.8466439275624964    0.7615890637801428    0.4907699678908770    Ti017
    0.7508295825908533    0.7683461949107055    0.4926125872666489    Ti018
    0.6549761900370044    0.7704943387391410    0.4937766374297325    Ti019
    0.5590313811136269    0.7645007393508436    0.4940552834128979    Ti020
    0.9427831009150722    0.2897667421685596    0.6549126463612964    Ti021
    0.8469006291514987    0.3158019673873724    0.6569139125873704    Ti022
    0.7510514014380121    0.3216981317734948    0.6576856147240946    Ti023
    0.6550338823871868    0.3185322932711755    0.6587529162257013    Ti024
    0.5590278669688118    0.3070675343598878    0.6597642952190199    Ti025
    0.9425620990912122    0.7872134515455187    0.8205462419141512    Ti026
    0.8468832642568174    0.7861952549758016    0.8232467676620772    Ti027
    0.7508262927183438    0.7841918629922517    0.8247604618494719    Ti028
    0.6549365732311117    0.7786360117844779    0.8263833225072688    Ti029
    0.5587252369505293    0.7637481513155038    0.8281744274064025    Ti030
    0.4586630263871568    0.2430342089103448    0.0010178154333644    Zr001
    0.3543366951380733    0.2490000763627762    0.9997789559126389    Zr002
    0.2503270739529170    0.2494003010823178    0.9985174061821951    Zr003
    0.1462462970608769    0.2495881402839473    0.9970904639078597    Zr004
    0.0423710389491703    0.2514970710734801    0.9950415429653248    Zr005
    0.4582950872727096    0.7385714679897433    0.1680349098994114    Zr006
    0.3543095980317402    0.7449144376899426    0.1664656744887054    Zr007
    0.2502619991859447    0.7481001435835140    0.1651498765988890    Zr008
    0.1462551863908175    0.7467626067505293    0.1638565103890883    Zr009
    0.0423605668369262    0.7385829517341520    0.1623710024298433    Zr010
    0.4583377215755248    0.2432007217443655    0.3346306275438167    Zr011
    0.3543268026106502    0.2486378337347261    0.3331927627439981    Zr012
    0.2503099859505368    0.2483155212461199    0.3317958624398897    Zr013
    0.1462881494674590    0.2464787780713777    0.3301542085594562    Zr014
    0.0424847632284440    0.2401988780352866    0.3293321664152487    Zr015
    0.4586630263871568    0.7569657910896552    0.5010178154333644    Zr016
    0.3543366951380733    0.7509999236372238    0.4997789559126388    Zr017
    0.2503270739529170    0.7505996989176822    0.4985174061821950    Zr018
    0.1462462970608769    0.7504118597160527    0.4970904639078597    Zr019
    0.0423710389491703    0.7485029289265199    0.4950415429653247    Zr020
    0.4582950872727096    0.2614285320102567    0.6680349098994114    Zr021
    0.3543095980317402    0.2550855623100574    0.6664656744887054    Zr022
    0.2502619991859447    0.2518998564164860    0.6651498765988890    Zr023
    0.1462551863908175    0.2532373932494706    0.6638565103890883    Zr024
    0.0423605668369262    0.2614170482658479    0.6623710024298433    Zr025
    0.4583377215755248    0.7567992782556345    0.8346306275438167    Zr026
    0.3543268026106502    0.7513621662652739    0.8331927627439981    Zr027
    0.2503099859505368    0.7516844787538801    0.8317958624398898    Zr028
    0.1462881494674590    0.7535212219286223    0.8301542085594562    Zr029
    0.0424847632284440    0.7598011219647134    0.8293321664152487    Zr030
    0.9890857948791520    0.1896196024776131    0.0076791707957611     O001
    0.9376207503953751    0.9512330612086828    0.0862515245898976     O002
    0.9388616409023953    0.9843339744489370    0.9208737016079667     O003
    0.8932417399944654    0.2200308975536700    0.0091424242513725     O004
    0.8457372117932636    0.9441827260785800    0.0921671169737337     O005
    0.8458109410624601    0.9718730803476205    0.9236492548611892     O006
    0.7975328414954532    0.1912911181516677    0.0102634950954723     O007
    0.7484795401673807    0.9382512747417167    0.0923103398252394     O008
    0.7488066268900866    0.9674311616451305    0.9245324257136858     O009
    0.7017170542423798    0.1961994434554768    0.0113576395177901     O010
    0.6535435330507440    0.9441056589406145    0.0939128987135547     O011
    0.6536337737031985    0.9649794613233666    0.9260049789238280     O012
    0.6058755186606675    0.1919370736858994    0.0126067633901243     O013
    0.5562837172366102    0.9560067745474825    0.0949894243280056     O014
    0.5561647579297357    0.9713082217857760    0.9265658463819122     O015
    0.5104262815353309    0.2250327543725490    0.0133412842573790     O016
    0.4596648935666252    0.0365220790903109    0.1046691499666963     O017
    0.4603014441199064    0.9394592362604897    0.9396035369697486     O018
    0.4057309188680235    0.1866912915322487    0.0104716693049198     O019
    0.3456750054057807    0.9754027772403973    0.0799948141518740     O020
    0.3449653120301476    0.0191165146053578    0.9138147097805671     O021
    0.3014633335279199    0.3044137935500899    0.0108254963760501     O022
    0.2534028726888947    0.0416739957482903    0.1002518004847701     O023
    0.2534633212702531    0.9552630155377813    0.9337963115384937     O024
    0.1973452567313245    0.1901599948175985    0.0089868601576413     O025
    0.1370406507527022    0.9739035067965816    0.0767644578503663     O026
    0.1370272053202228    0.0212780608199452    0.9106161744957220     O027
    0.0933154105511562    0.3026281393176972    0.0077072342597262     O028
    0.0447163843006777    0.0296339291931744    0.0962103230554021     O029
    0.0445479228345391    0.9526731549006584    0.9318771142311917     O030
    0.9887453954609597    0.7644404791311317    0.1728163452520235     O031
    0.9434732642195698    0.4815079219799117    0.2565098574166598     O032
    0.9432093975580429    0.4557555760979000    0.0896935924423587     O033
    0.8934295776117693    0.6995197204106844    0.1759323188750486     O034
    0.8443153496892819    0.4803040603876170    0.2565312167870673     O035
    0.8441123884127677    0.4438581426510310    0.0891187025667861     O036
    0.7974596794231203    0.7181697273035397    0.1762010234071312     O037
    0.7494331416003845    0.4848506852521268    0.2581171093541457     O038
    0.7495527831323656    0.4383208001285652    0.0904509412376058     O039
    0.7015857882119505    0.7125054488327436    0.1776992766901557     O040
    0.6526610805660411    0.4885402509781329    0.2588889493046693     O041
    0.6529444363654306    0.4436561683579611    0.0909567006542886     O042
    0.6057817213723098    0.7295639030769365    0.1786451333162944     O043
    0.5581717580883705    0.4982892749436444    0.2602194568450074     O044
    0.5585780460477352    0.4551315593238314    0.0920368010607788     O045
    0.5100039946375787    0.7238195567932664    0.1803902833690643     O046
    0.4496300500661050    0.4734970199698408    0.2483480508108755     O047
    0.4512160317317678    0.5134400877580347    0.0801708087169146     O048
    0.4055468141122346    0.7995094828457852    0.1776173341951761     O049
    0.3572652919489200    0.5418591625083167    0.2683400552751323     O050
    0.3574376898384556    0.4518397364226274    0.1015609106341557     O051
    0.3014241019623113    0.6901211375865373    0.1772094451277084     O052
    0.2410276510514038    0.4779251719875289    0.2456198836989145     O053
    0.2412093234006107    0.5191549174872137    0.0788403226170686     O054
    0.1973109854020549    0.8052287404014535    0.1754101795311698     O055
    0.1493975076867429    0.5431200338753897    0.2662676830005353     O056
    0.1492197552125631    0.4515436838827326    0.0994648407110290     O057
    0.0933602818769472    0.6853474001618736    0.1750823522342770     O058
    0.0335372626254156    0.4689701079822440    0.2432089571815297     O059
    0.0335044583277124    0.5064361771889452    0.0775980580890021     O060
    0.9890836054670373    0.2111420942555569    0.3412432630532862     O061
    0.9388616409023953    0.0156660255510630    0.4208737016079666     O062
    0.9385546205052364    0.9808989188942903    0.2525127897227648     O063
    0.8935342366819796    0.2638389328886888    0.3407072253061330     O064
    0.8458109410624601    0.0281269196523795    0.4236492548611892     O065
    0.8457264199095889    0.9792525647345585    0.2568370085461992     O066
    0.7976249853405406    0.2545098972084502    0.3428521613435933     O067
    0.7488066268900866    0.0325688383548694    0.4245324257136857     O068
    0.7487224094467351    0.9841090320789192    0.2578005138680055     O069
    0.7017339390112625    0.2660406786857833    0.3438998019176366     O070
    0.6536337737031985    0.0350205386766333    0.4260049789238280     O071
    0.6537035906811468    0.9886568886932849    0.2596679853752021     O072
    0.6058766504103588    0.2632933625639636    0.3461163849609433     O073
    0.5561647579297357    0.0286917782142240    0.4265658463819121     O074
    0.5564173800427810    0.9989948412059562    0.2615864939796210     O075
    0.5100291311403922    0.2825574313014556    0.3462897082791939     O076
    0.4603014441199064    0.0605407637395103    0.4396035369697486     O077
    0.4600441569444341    0.9495013890255279    0.2708572406416038     O078
    0.4056039848002441    0.1974227469007630    0.3471944821881650     O079
    0.3449653120301476    0.9808834853946422    0.4138147097805671     O080
    0.3460359766911481    0.0195444728695406    0.2465280945632244     O081
    0.3014194602398064    0.3076550273455325    0.3431667645326542     O082
    0.2534633212702531    0.0447369844622187    0.4337963115384937     O083
    0.2534112134250889    0.9550394737953454    0.2668848343950430     O084
    0.1973788482254690    0.1917111756420766    0.3428006297611930     O085
    0.1370272053202228    0.9787219391800548    0.4106161744957219     O086
    0.1373321216968861    0.0205506910945132    0.2430751729454101     O087
    0.0933430683869645    0.3044653043405602    0.3401117854610404     O088
    0.0445479228345391    0.0473268450993416    0.4318771142311916     O089
    0.0441387603368710    0.9497540838610163    0.2631710357400650     O090
    0.9890857948791520    0.8103803975223869    0.5076791707957611     O091
    0.9432093975580429    0.5442444239021000    0.5896935924423587     O092
    0.9428902963522319    0.5186061592913873    0.4246109895818435     O093
    0.8932417399944654    0.7799691024463300    0.5091424242513725     O094
    0.8441123884127677    0.5561418573489689    0.5891187025667861     O095
    0.8439615892906502    0.5289316315327781    0.4237126300639530     O096
    0.7975328414954532    0.8087088818483323    0.5102634950954723     O097
    0.7495527831323656    0.5616791998714348    0.5904509412376058     O098
    0.7494261688649217    0.5338677554071936    0.4260303472822712     O099
    0.7017170542423798    0.8038005565445232    0.5113576395177901     O100
    0.6529444363654306    0.5563438316420388    0.5909567006542886     O101
    0.6529392024538794    0.5360627036986330    0.4268551296070270     O102
    0.6058755186606675    0.8080629263141006    0.5126067633901243     O103
    0.5585780460477352    0.5448684406761686    0.5920368010607788     O104
    0.5588052724873478    0.5289424598861174    0.4269557119949424     O105
    0.5104262815353309    0.7749672456274510    0.5133412842573790     O106
    0.4512160317317678    0.4865599122419652    0.5801708087169146     O107
    0.4521991307391814    0.5333496295504503    0.4126392743161630     O108
    0.4057309188680235    0.8133087084677513    0.5104716693049198     O109
    0.3574376898384556    0.5481602635773726    0.6015609106341557     O110
    0.3570534296667843    0.4587282981616738    0.4346737956791245     O111
    0.3014633335279199    0.6955862064499101    0.5108254963760501     O112
    0.2412093234006107    0.4808450825127863    0.5788403226170686     O113
    0.2414495195405308    0.5217861137889344    0.4119541669556313     O114
    0.1973452567313245    0.8098400051824015    0.5089868601576413     O115
    0.1492197552125631    0.5484563161172673    0.5994648407110290     O116
    0.1491066106034040    0.4566780316593295    0.4321699493116994     O117
    0.0933154105511562    0.6973718606823027    0.5077072342597262     O118
    0.0335044583277124    0.4935638228110548    0.5775980580890021     O119
    0.0345053546916390    0.5248648363436033    0.4079838471109908     O120
    0.9887453954609597    0.2355595208688683    0.6728163452520235     O121
    0.9385546205052364    0.0191010811057097    0.7525127897227648     O122
    0.9376207503953751    0.0487669387913172    0.5862515245898976     O123
    0.8934295776117693    0.3004802795893155    0.6759323188750486     O124
    0.8457264199095889    0.0207474352654415    0.7568370085461993     O125
    0.8457372117932636    0.0558172739214200    0.5921671169737337     O126
    0.7974596794231203    0.2818302726964603    0.6762010234071312     O127
    0.7487224094467351    0.0158909679210808    0.7578005138680055     O128
    0.7484795401673807    0.0617487252582833    0.5923103398252394     O129
    0.7015857882119505    0.2874945511672564    0.6776992766901557     O130
    0.6537035906811468    0.0113431113067151    0.7596679853752022     O131
    0.6535435330507440    0.0558943410593855    0.5939128987135547     O132
    0.6057817213723098    0.2704360969230634    0.6786451333162944     O133
    0.5564173800427810    0.0010051587940438    0.7615864939796211     O134
    0.5562837172366102    0.0439932254525175    0.5949894243280056     O135
    0.5100039946375787    0.2761804432067336    0.6803902833690643     O136
    0.4600441569444341    0.0504986109744721    0.7708572406416039     O137
    0.4596648935666252    0.9634779209096891    0.6046691499666963     O138
    0.4055468141122346    0.2004905171542148    0.6776173341951761     O139
    0.3460359766911481    0.9804555271304594    0.7465280945632244     O140
    0.3456750054057807    0.0245972227596027    0.5799948141518740     O141
    0.3014241019623113    0.3098788624134627    0.6772094451277084     O142
    0.2534112134250889    0.0449605262046546    0.7668848343950430     O143
    0.2534028726888947    0.9583260042517097    0.6002518004847701     O144
    0.1973109854020549    0.1947712595985464    0.6754101795311698     O145
    0.1373321216968861    0.9794493089054868    0.7430751729454101     O146
    0.1370406507527022    0.0260964932034184    0.5767644578503663     O147
    0.0933602818769472    0.3146525998381264    0.6750823522342770     O148
    0.0441387603368710    0.0502459161389837    0.7631710357400650     O149
    0.0447163843006777    0.9703660708068256    0.5962103230554021     O150
    0.9890836054670373    0.7888579057444431    0.8412432630532862     O151
    0.9428902963522319    0.4813938407086126    0.9246109895818435     O152
    0.9434732642195698    0.5184920780200883    0.7565098574166598     O153
    0.8935342366819796    0.7361610671113112    0.8407072253061330     O154
    0.8439615892906502    0.4710683684672218    0.9237126300639531     O155
    0.8443153496892819    0.5196959396123830    0.7565312167870673     O156
    0.7976249853405406    0.7454901027915497    0.8428521613435933     O157
    0.7494261688649217    0.4661322445928064    0.9260303472822713     O158
    0.7494331416003845    0.5151493147478732    0.7581171093541457     O159
    0.7017339390112625    0.7339593213142166    0.8438998019176367     O160
    0.6529392024538794    0.4639372963013670    0.9268551296070271     O161
    0.6526610805660411    0.5114597490218671    0.7588889493046693     O162
    0.6058766504103588    0.7367066374360363    0.8461163849609434     O163
    0.5588052724873478    0.4710575401138825    0.9269557119949425     O164
    0.5581717580883705    0.5017107250563555    0.7602194568450074     O165
    0.5100291311403922    0.7174425686985444    0.8462897082791940     O166
    0.4521991307391814    0.4666503704495497    0.9126392743161631     O167
    0.4496300500661050    0.5265029800301591    0.7483480508108755     O168
    0.4056039848002441    0.8025772530992370    0.8471944821881650     O169
    0.3570534296667843    0.5412717018383262    0.9346737956791245     O170
    0.3572652919489200    0.4581408374916833    0.7683400552751323     O171
    0.3014194602398064    0.6923449726544675    0.8431667645326542     O172
    0.2414495195405308    0.4782138862110656    0.9119541669556313     O173
    0.2410276510514038    0.5220748280124710    0.7456198836989145     O174
    0.1973788482254690    0.8082888243579234    0.8428006297611930     O175
    0.1491066106034040    0.5433219683406705    0.9321699493116995     O176
    0.1493975076867429    0.4568799661246103    0.7662676830005353     O177
    0.0933430683869645    0.6955346956594397    0.8401117854610405     O178
    0.0345053546916390    0.4751351636563967    0.9079838471109909     O179
    0.0335372626254156    0.5310298920177559    0.7432089571815297     O180
