POSCAR_PTOPZO_n5_compact
 1.000000
    4.1473156818292152   -3.9852625849234307    0.0000000000000000
    4.1473156818292152    3.9852625849234307    0.0000000000000000
   -0.1853648260746889    0.0000000000000000   40.1106020531210348
   Pb   Ti   Zr   O 
    20    10    10    60
Direct
    0.0214268408605208    0.0214268408605209    0.9856048054135726    Pb001
    0.0328831049598862    0.0328831049598863    0.8910418173746848    Pb002
    0.0373758494706991    0.0373758494706992    0.7954486671627308    Pb003
    0.0423244055395316    0.0423244055395317    0.6997612526432633    Pb004
    0.0484713894965659    0.0484713894965660    0.6034943592156309    Pb005
    0.0544828153658764    0.0544828153658765    0.5072295833197983    Pb006
    0.0343514043254665    0.0343514043254666    0.4060445617254730    Pb007
    0.0242347909940400    0.0242347909940401    0.2972997674364706    Pb008
    0.0245513669773097    0.0245513669773098    0.1969008657670629    Pb009
    0.0070226228042039    0.0070226228042040    0.0890353124264394    Pb010
    0.5254568151901751    0.5254568151901751    0.9861004834059841    Pb011
    0.5331972564518601    0.5331972564518601    0.8910309733921551    Pb012
    0.5375214031273892    0.5375214031273892    0.7955583138208482    Pb013
    0.5426756091246752    0.5426756091246752    0.6998020925830417    Pb014
    0.5477550152913082    0.5477550152913082    0.6046489040353719    Pb015
    0.5468723140016891    0.5468723140016891    0.5102103326316864    Pb016
    0.5277246585592295    0.5277246585592295    0.4013062122539567    Pb017
    0.5297796276793747    0.5297796276793747    0.3010883833541413    Pb018
    0.5185553853388782    0.5185553853388782    0.1931909267708889    Pb019
    0.5176809724175975    0.5176809724175975    0.0925516141743898    Pb020
    0.5074000225743591    0.0108574677085045    0.9411344587147923    Ti001
    0.5148174874534279    0.0134415423085415    0.8450945829516314    Ti002
    0.5197979622908808    0.0180905608108972    0.7492490224587982    Ti003
    0.5245490415271095    0.0236117304726165    0.6534009373368974    Ti004
    0.5318755863750229    0.0270869496293145    0.5575142011543831    Ti005
    0.0108574677085045    0.5074000225743591    0.9411344587147923    Ti006
    0.0134415423085415    0.5148174874534279    0.8450945829516314    Ti007
    0.0180905608108972    0.5197979622908808    0.7492490224587982    Ti008
    0.0236117304726165    0.5245490415271095    0.6534009373368974    Ti009
    0.0270869496293145    0.5318755863750229    0.5575142011543831    Ti010
    0.5230320218390931    0.0184745290256601    0.4572143047458753    Zr001
    0.5133875820823237    0.0121763715402422    0.3534762965205119    Zr002
    0.5103609626569112    0.0048424148565545    0.2494203160298342    Zr003
    0.5022336168789254    0.0016988440463877    0.1453961881718442    Zr004
    0.4997205353971954    0.9930280691819604    0.0415180036221301    Zr005
    0.0184745290256601    0.5230320218390931    0.4572143047458753    Zr006
    0.0121763715402422    0.5133875820823237    0.3534762965205119    Zr007
    0.0048424148565545    0.5103609626569112    0.2494203160298342    Zr008
    0.0016988440463877    0.5022336168789254    0.1453961881718442    Zr009
    0.9930280691819604    0.4997205353971954    0.0415180036221301    Zr010
    0.4601026859870605    0.9753710437831913    0.9899179472102517     O001
    0.7256482670261626    0.7256482670261626    0.9439003904008700     O002
    0.7261785248982451    0.2237627064021693    0.9428986736940743     O003
    0.4758058804733527    0.9645068780421653    0.8942095420095484     O004
    0.7269835892399072    0.7269835892399072    0.8463390661977002     O005
    0.7310877667673883    0.2267580570062293    0.8467629397089809     O006
    0.4751595699104532    0.9737271630613193    0.7984180737289108     O007
    0.7327587518435479    0.7327587518435479    0.7512414539992847     O008
    0.7352236195117077    0.2320936984258921    0.7510814217629402     O009
    0.4829098564930382    0.9763449581745010    0.7026128588599292     O010
    0.7368330188908170    0.7368330188908170    0.6547790751739910     O011
    0.7410390922811705    0.2365286374820315    0.6551919851313173     O012
    0.4824863460336040    0.9865631057951917    0.6068154584517841     O013
    0.7448545233962918    0.7448545233962918    0.5613926397207222     O014
    0.7452515699731850    0.2442304465085384    0.5591535176904542     O015
    0.5077097810788587    0.9725179755067330    0.5110180263491414     O016
    0.7063937926598385    0.7063937926598385    0.4573111331387382     O017
    0.8097776125908784    0.2117940831685559    0.4578208130384383     O018
    0.4631025820349000    0.0373032690854345    0.4066099934133761     O019
    0.7774781157544197    0.7774781157544197    0.3652550685750385     O020
    0.7094068698913321    0.3000552046704283    0.3553700945919119     O021
    0.5346455338125653    0.9526907111131424    0.3025280896155352     O022
    0.6944009841989853    0.6944009841989853    0.2458677777012924     O023
    0.7963846875576697    0.2023375733254937    0.2509387364793483     O024
    0.4503587936536211    0.0237436746941739    0.1984302724624599     O025
    0.7663540639909989    0.7663540639909989    0.1571037804236113     O026
    0.7005037384083226    0.2870894390079286    0.1471116813493509     O027
    0.5280612383854264    0.9417725846817644    0.0943287785685030     O028
    0.6764354176532166    0.6764354176532166    0.0389275522257009     O029
    0.7836055611955790    0.1901568463948848    0.0436826336357399     O030
    0.9753710437831913    0.4601026859870605    0.9899179472102517     O031
    0.2218864706540239    0.2218864706540240    0.9411145364297369     O032
    0.2237627064021693    0.7261785248982451    0.9428986736940743     O033
    0.9645068780421653    0.4758058804733527    0.8942095420095484     O034
    0.2284623314846110    0.2284623314846110    0.8471631401087549     O035
    0.2267580570062293    0.7310877667673883    0.8467629397089809     O036
    0.9737271630613193    0.4751595699104532    0.7984180737289108     O037
    0.2320843454580201    0.2320843454580201    0.7507757592647124     O038
    0.2320936984258921    0.7352236195117077    0.7510814217629402     O039
    0.9763449581745010    0.4829098564930382    0.7026128588599292     O040
    0.2380696067824993    0.2380696067824994    0.6556877009904412     O041
    0.2365286374820315    0.7410390922811705    0.6551919851313173     O042
    0.9865631057951917    0.4824863460336040    0.6068154584517841     O043
    0.2443891667105406    0.2443891667105407    0.5580565035055470     O044
    0.2442304465085384    0.7452515699731850    0.5591535176904542     O045
    0.9725179755067330    0.5077097810788587    0.5110180263491414     O046
    0.2884815207266521    0.2884815207266522    0.4686238257720846     O047
    0.2117940831685559    0.8097776125908784    0.4578208130384383     O048
    0.0373032690854345    0.4631025820349000    0.4066099934133761     O049
    0.2008707999929877    0.2008707999929877    0.3497154757137579     O050
    0.3000552046704283    0.7094068698913321    0.3553700945919119     O051
    0.9526907111131424    0.5346455338125653    0.3025280896155352     O052
    0.2715932294177926    0.2715932294177927    0.2611616587965316     O053
    0.2023375733254937    0.7963846875576697    0.2509387364793483     O054
    0.0237436746941739    0.4503587936536211    0.1984302724624599     O055
    0.1890236731251528    0.1890236731251529    0.1418204463454060     O056
    0.2870894390079286    0.7005037384083226    0.1471116813493509     O057
    0.9417725846817644    0.5280612383854264    0.0943287785685030     O058
    0.2593704141831098    0.2593704141831099    0.0506946440003517     O059
    0.1901568463948848    0.7836055611955790    0.0436826336357399     O060
