POSCAR_PTOPZO_n3_compact
 1.000000
   24.0349483490000004    0.0000000000000000    0.0000000000000000
    0.0000000000000000    5.7185254097033376    0.0000000000000000
   -0.0345021474666671    0.0000000000000000    5.7902846796976304
   Pb   Ti   Zr   O 
    12     6     6    36
Direct
    0.8565552199999971    0.2455965059999980    0.0235264080000022    Pb001
    0.8565552199999971    0.7544034940000020    0.5235264080000022    Pb002
    0.6978047919999995    0.2582861910000033    0.0282767059999998    Pb003
    0.6978047919999995    0.7417138089999967    0.5282767059999998    Pb004
    0.5390807810000027    0.2538331299999966    0.0256014559999969    Pb005
    0.5390807810000027    0.7461668700000034    0.5256014559999971    Pb006
    0.3638467319999990    0.2508009860000014    0.0160611849999981    Pb007
    0.3638467319999990    0.7491990139999986    0.5160611849999981    Pb008
    0.1894824219999975    0.2491747449999975    0.0089682740000043    Pb009
    0.1894824219999975    0.7508252550000025    0.5089682740000043    Pb010
    0.0146115860000009    0.2476877810000031    0.0149085720000031    Pb011
    0.0146115860000009    0.7523122189999969    0.5149085720000031    Pb012
    0.9407628069999987    0.7464176639999990    0.9983192920000050    Ti001
    0.9407628069999987    0.2535823360000010    0.4983192920000050    Ti002
    0.7810429390000024    0.2498688290000002    0.5029280180000057    Ti003
    0.7810429390000024    0.7501311709999998    0.0029280180000057    Ti004
    0.6214680799999996    0.2440631360000010    0.5082005949999981    Ti005
    0.6214680799999996    0.7559368639999990    0.0082005949999981    Ti006
    0.4551381440000029    0.2506808099999985    0.4843225250000031    Zr001
    0.4551381440000029    0.7493191900000015    0.9843225250000032    Zr002
    0.2816490209999998    0.2497891060000013    0.4791425239999966    Zr003
    0.2816490209999998    0.7502108939999987    0.9791425239999967    Zr004
    0.1078677420000034    0.7512281750000013    0.9735791280000043    Zr005
    0.1078677420000034    0.2487718249999987    0.4735791280000043    Zr006
    0.9477826319999991    0.0056709819999978    0.7037516700000026     O001
    0.9477826319999991    0.9943290180000022    0.2037516700000026     O002
    0.9400623100000018    0.4936747100000005    0.1954711409999988     O003
    0.9400623100000018    0.5063252899999995    0.6954711409999990     O004
    0.8632302050000007    0.7707210700000005    0.9413443079999979     O005
    0.8632302050000007    0.2292789299999995    0.4413443079999979     O006
    0.7878106920000009    0.5030613509999993    0.2068813899999996     O007
    0.7878106920000009    0.4969386490000007    0.7068813899999997     O008
    0.7812162760000021    0.9958513500000024    0.6996540919999958     O009
    0.7812162760000021    0.0041486499999976    0.1996540919999958     O010
    0.7038671840000035    0.2742003669999987    0.4466442849999978     O011
    0.7038671840000035    0.7257996330000013    0.9466442849999979     O012
    0.6301170779999978    0.0027060879999963    0.7155576229999951     O013
    0.6301170779999978    0.9972939120000037    0.2155576229999951     O014
    0.6204354930000022    0.4986921400000028    0.2037384350000054     O015
    0.6204354930000022    0.5013078599999972    0.7037384350000055     O016
    0.5446936230000006    0.2076352420000018    0.4528105800000048     O017
    0.5446936230000006    0.7923647579999982    0.9528105800000048     O018
    0.4705607750000027    0.5260895620000026    0.2489784869999953     O019
    0.4705607750000027    0.4739104379999974    0.7489784869999954     O020
    0.4528078669999971    0.9528231290000022    0.6772404860000023     O021
    0.4528078669999971    0.0471768709999978    0.1772404860000023     O022
    0.3706145740000011    0.3050429390000032    0.4514638079999996     O023
    0.3706145740000011    0.6949570609999968    0.9514638079999997     O024
    0.2971402769999969    0.0264040550000002    0.7448842949999985     O025
    0.2971402769999969    0.9735959449999998    0.2448842949999985     O026
    0.2784785759999977    0.4523735129999977    0.1718579750000019     O027
    0.2784785759999977    0.5476264870000023    0.6718579750000020     O028
    0.1966746229999998    0.8047286790000000    0.9458124010000049     O029
    0.1966746229999998    0.1952713210000000    0.4458124010000048     O030
    0.1216822199999967    0.5283765579999977    0.2406998669999965     O031
    0.1216822199999967    0.4716234420000023    0.7406998669999965     O032
    0.1055624190000017    0.9466652679999967    0.6599449280000016     O033
    0.1055624190000017    0.0533347320000033    0.1599449280000016     O034
    0.0224729090000011    0.7234447230000001    0.9391933599999973     O035
    0.0224729090000011    0.2765552769999999    0.4391933599999973     O036
