POSCAR_PTOPZO_n2_compact
 1.000000
   16.0174457874404155    0.0000000000000000    0.0000000000000000
    0.0000000000000000    5.7224824756503390    0.0000000000000000
   -0.0374949347718010    0.0000000000000000    5.7917752100397353
   Pb   Ti   Zr   O 
     8     4     4    24
Direct
    0.0203766669554639    0.7544302019654352    0.9563705679830553    Pb001
    0.2573639911627244    0.7635466145672053    0.9478132857604086    Pb002
    0.4950325247895648    0.7566568843421126    0.9509019353447125    Pb003
    0.7576575087230802    0.7509669310867686    0.9616169664215235    Pb004
    0.0203766669554639    0.2455697980345648    0.4563705679830554    Pb005
    0.2573639911627244    0.2364533854327947    0.4478132857604087    Pb006
    0.4950325247895648    0.2433431156578874    0.4509019353447123    Pb007
    0.7576575087230802    0.2490330689132314    0.4616169664215235    Pb008
    0.1313328839967861    0.7447386613052949    0.4731293469004427    Ti001
    0.3709731193982483    0.7431830430080439    0.4686041448109772    Ti002
    0.1313328839967861    0.2552613386947051    0.9731293469004427    Ti003
    0.3709731193982483    0.2568169569919561    0.9686041448109772    Ti004
    0.6204506197478423    0.7509964397133984    0.4925663073740670    Zr001
    0.8807329182681324    0.7511498692319156    0.4979830726792353    Zr002
    0.6204506197478423    0.2490035602866016    0.9925663073740669    Zr003
    0.8807329182681324    0.2488501307680844    0.9979830726792354    Zr004
    0.0086844149139817    0.7223016408847500    0.5324320067844562     O001
    0.1203936361173135    0.9925262007040002    0.2686792665457579     O002
    0.1326327649996225    0.4914990005097755    0.2763192322148764     O003
    0.2474376986430234    0.7745102608024973    0.5303585863942999     O004
    0.3726891703320068    0.9994679416448033    0.2734580435862005     O005
    0.3581622721677557    0.5003799399716669    0.2619932987396159     O006
    0.4862586084789318    0.7073169924363341    0.5241211361989547     O007
    0.5980993064167398    0.9757353268882376    0.2300819267895591     O008
    0.6234563905596318    0.4537988465857565    0.2994529884756195     O009
    0.7475140421475124    0.8047223995563932    0.5282513398724333     O010
    0.8837932973630842    0.0526941981394640    0.3122185694215010     O011
    0.8591577864564167    0.5264406214277892    0.2330936592542632     O012
    0.0086844149139817    0.2776983591152500    0.0324320067844561     O013
    0.1326327649996225    0.5085009994902245    0.7763192322148764     O014
    0.1203936361173135    0.0074737992959998    0.7686792665457578     O015
    0.2474376986430234    0.2254897391975027    0.0303585863942999     O016
    0.3581622721677557    0.4996200600283331    0.7619932987396159     O017
    0.3726891703320068    0.0005320583551967    0.7734580435862004     O018
    0.4862586084789318    0.2926830075636659    0.0241211361989548     O019
    0.6234563905596318    0.5462011534142435    0.7994529884756195     O020
    0.5980993064167398    0.0242646731117624    0.7300819267895591     O021
    0.7475140421475124    0.1952776004436068    0.0282513398724333     O022
    0.8591577864564167    0.4735593785722108    0.7330936592542632     O023
    0.8837932973630842    0.9473058018605360    0.8122185694215009     O024
