POSCAR_BTO_BZO_n4_scan_SM2_0_C2_0                       
   1.00000000000000     
    31.9575713780101687    0.0000000000000000   -0.1906407065275373
     0.0000000000000009    5.7544800000000000    0.0000000000000004
     0.0000000000000000    0.0000000000000000   17.4163800000000002
   Ba   Ti   Zr   O 
    48    24    24   144
Direct
  0.0016099999999994  0.7630855336165610  0.0011999999999972
  0.0016099999999994  0.2369144663834390  0.5011999999999972
  0.0028000000000006  0.7616275488707984  0.3347600000000028
  0.0028000000000006  0.2383724511292016  0.8347600000000028
  0.0029800000000009  0.2359130824873574  0.1686199999999971
  0.0029800000000009  0.7640869175126426  0.6686199999999971
  0.1208900000000028  0.7611768225239999  0.3328699999999998
  0.1208900000000028  0.2388231774760001  0.8328699999999998
  0.1211100000000016  0.2370712127999965  0.1663899999999998
  0.1211100000000016  0.7629287872000035  0.6663899999999998
  0.1211500000000001  0.7605043902759974  0.9991899999999987
  0.1211500000000001  0.2394956097240026  0.4991899999999987
  0.2401800000000023  0.7642890255925607  0.3313699999999997
  0.2401800000000023  0.2357109744074393  0.8313699999999997
  0.2402900000000017  0.2403388747977573  0.1655400000000000
  0.2402900000000017  0.7596611252022427  0.6655400000000000
  0.2407600000000016  0.7601198492052035  0.9981700000000018
  0.2407600000000016  0.2398801507947965  0.4981700000000018
  0.3590799999999987  0.7582320478967972  0.3301900000000018
  0.3590799999999987  0.2417679521032028  0.8301900000000018
  0.3605400000000003  0.2357848512000018  0.1633899999999997
  0.3605400000000003  0.7642151487999982  0.6633899999999997
  0.3605700000000027  0.7613728033032032  0.9959500000000006
  0.3605700000000027  0.2386271966967968  0.4959500000000006
  0.4784799999999976  0.7572514653291975  0.3294500000000014
  0.4784799999999976  0.2427485346708025  0.8294500000000014
  0.4795299999999969  0.2466011959126391  0.1630299999999991
  0.4795299999999969  0.7533988040873609  0.6630299999999991
  0.4806499999999971  0.7617997305834407  0.9966000000000008
  0.4806499999999971  0.2382002694165593  0.4966000000000008
  0.6106399999999965  0.7465308739240015  0.9991800000000026
  0.6106399999999965  0.2534691260759985  0.4991800000000026
  0.6109300000000033  0.2480330655999978  0.1663700000000006
  0.6109300000000033  0.7519669344000022  0.6663700000000006
  0.6110400000000027  0.7538221916760008  0.3329000000000022
  0.6110400000000027  0.2461778083239992  0.8329000000000022
  0.7413499999999971  0.7474199886074402  0.3344999999999985
  0.7413499999999971  0.2525800113925598  0.8344999999999985
  0.7413900000000027  0.7495054149948004  0.0011300000000034
  0.7413900000000027  0.2504945850051996  0.5011300000000034
  0.7414500000000004  0.2458454036022388  0.1677000000000035
  0.7414500000000004  0.7541545963977612  0.6676999999999964
  0.8714599999999990  0.7547924608968017  0.0035999999999987
  0.8714599999999990  0.2452075391031983  0.5035999999999987
  0.8716000000000008  0.2526394272000019  0.1695199999999986
  0.8716000000000008  0.7473605727999981  0.6695199999999986
  0.8720100000000031  0.7538969663032020  0.3363799999999983
  0.8720100000000031  0.2461030336967980  0.8363799999999983
  0.0580700000000007  0.2587828203028977  0.3418199999999985
  0.0580700000000007  0.7412171796971023  0.8418199999999985
  0.0583999999999989  0.2557857096251013  0.0077799999999968
  0.0583999999999989  0.7442142903748987  0.5077799999999968
  0.0584300000000013  0.7377985299279999  0.1736099999999965
  0.0584300000000013  0.2622014700720001  0.6736099999999965
  0.1782899999999970  0.2565097323010974  0.3400299999999987
  0.1782899999999970  0.7434902676989026  0.8400299999999987
  0.1783000000000001  0.2557896504268982  0.0072899999999976
  0.1783000000000001  0.7442103495731018  0.5072899999999976
  0.1783799999999971  0.7441493827279970  0.1725199999999987
  0.1783799999999971  0.2558506172720030  0.6725199999999987
  0.2980999999999980  0.2560023761201009  0.0060500000000019
  0.2980999999999980  0.7439976238798991  0.5060500000000019
  0.2980999999999980  0.2549482313598972  0.3382399999999990
  0.2980999999999980  0.7450517686401028  0.8382399999999990
  0.2983800000000016  0.7452806074799980  0.1711699999999965
  0.2983800000000016  0.2547193925200020  0.6711700000000036
  0.4178700000000006  0.7382668228400036  0.1697599999999966
  0.4178700000000006  0.2617331771600035  0.6697599999999966
  0.4179299999999984  0.2589692808791000  0.0030900000000003
  0.4179299999999984  0.7410307191209000  0.5030900000000003
  0.4183000000000021  0.2562975419608975  0.3368099999999998
  0.4183000000000021  0.7437024580391025  0.8368099999999998
  0.5427800000000005  0.2541879832971006  0.3431899999999999
  0.5427800000000005  0.7458120167028994  0.8431899999999999
  0.5428100000000029  0.2516525939749030  0.0106800000000007
  0.5428100000000029  0.7483474060250970  0.5106800000000007
  0.5428599999999975  0.7557805772719988  0.1775700000000029
  0.5428599999999975  0.2442194227280012  0.6775700000000029
  0.6725700000000003  0.7460797244719970  0.1787199999999984
  0.6725700000000003  0.2539202755280030  0.6787199999999984
  0.6726299999999981  0.2475886531731035  0.0122000000000000
  0.6726299999999981  0.7524113468269036  0.5122000000000000
  0.6726299999999981  0.2494610712989029  0.3455900000000014
  0.6726299999999981  0.7505389287010971  0.8455900000000014
  0.8026199999999974  0.2502159274798998  0.0136200000000031
  0.8026199999999974  0.7497840725201002  0.5136200000000031
  0.8026199999999974  0.7460284997199977  0.1803499999999971
  0.8026199999999974  0.2539715002800023  0.6803499999999971
  0.8026199999999974  0.2479925722401006  0.3470200000000006
  0.8026199999999974  0.7520074277598994  0.8470200000000006
  0.9325800000000015  0.7572022843599981  0.1819199999999981
  0.9325800000000015  0.2427977156400019  0.6819199999999981
  0.9326300000000032  0.2512132616391014  0.3486199999999968
  0.9326300000000032  0.7487867383608986  0.8486199999999968
  0.9329999999999998  0.2533790227208996  0.0149400000000028
  0.9329999999999998  0.7466209772791004  0.5149400000000028
  0.0547539582545014  0.9989591678329575  0.4405460939370016
  0.0547539582545014  0.0010408321670425  0.9405460939370016
  0.0547893386392033  0.0067472061162803  0.2751722466810591
  0.0547893386392033  0.9932527938837197  0.7751722466810591
  0.0548866986787999  0.9935780382833173  0.1076815845648582
  0.0548866986787999  0.0064219617166827  0.6076815845648582
  0.0576906613608017  0.5063572061162773  0.2737877533189419
  0.0576906613608017  0.4936427938837227  0.7737877533189419
  0.0577933013211975  0.4926180382833181  0.1066484154351386
  0.0577933013211975  0.5073819617166819  0.6066484154351386
  0.0580360417455026  0.5011008321670403  0.9403739060630016
  0.0580360417455026  0.4988991678329597  0.4403739060630016
  0.1167900000000017  0.7592004911999979  0.1922700000000006
  0.1167900000000017  0.2407995088000021  0.6922700000000006
  0.1168699999999987  0.2403147908552015  0.0262699999999967
  0.1168699999999987  0.7596852091447985  0.5262699999999967
  0.1168899999999979  0.2412557003448015  0.3597800000000007
  0.1168899999999979  0.7587442996551985  0.8597800000000007
  0.1751939125902027  0.5027798337918767  0.2722284437641420
  0.1751939125902027  0.4972201662081233  0.7722284437641420
  0.1753315014328010  0.4979170836741176  0.1054664522710596
  0.1753315014328010  0.5020829163258824  0.6054664522710596
  0.1754945904044973  0.5028772498822391  0.9393649309379626
  0.1754945904044973  0.4971227501177609  0.4393649309379626
  0.1767054095954990  0.9965727501177568  0.4403850690620388
  0.1767054095954990  0.0034272498822432  0.9403850690620388
  0.1768284985671968  0.9984970836741169  0.1066335477289400
  0.1768284985671968  0.0015029163258831  0.6066335477289400
  0.1768560874098029  0.0024998337918802  0.2734015562358607
  0.1768560874098029  0.9975001662081198  0.7734015562358607
  0.2365500000000011  0.7469180552756782  0.1913899999999984
  0.2365500000000011  0.2530819447243218  0.6913899999999984
  0.2366099999999989  0.2555164534175205  0.0249299999999977
  0.2366099999999989  0.7444835465824795  0.5249299999999977
  0.2366699999999966  0.2498316018581619  0.3572800000000029
  0.2366699999999966  0.7501683981418381  0.8572800000000029
  0.2944525212503990  0.9951664695753166  0.1041928864849382
  0.2944525212503990  0.0048335304246834  0.6041928864849382
  0.2947439562834973  0.9932777861113635  0.4380841237288422
  0.2947439562834973  0.0067222138886365  0.9380841237288422
  0.2950334144098008  0.0032842556866797  0.2709032897758590
  0.2950334144098008  0.9967157443133203  0.7709032897758590
  0.2967465855901992  0.5046942556866796  0.2716967102241412
  0.2967465855901992  0.4953057443133204  0.7716967102241412
  0.2969160437165002  0.5057522138886412  0.9390758762711613
  0.2969160437165002  0.4942477861113588  0.4390758762711613
  0.2969774787495965  0.4954364695753171  0.1052171135150601
  0.2969774787495965  0.5045635304246829  0.6052171135150601
  0.3562500000000028  0.7647142415999966  0.1896199999999979
  0.3562500000000028  0.2352857584000034  0.6896199999999979
  0.3563600000000022  0.2362984041255984  0.0235199999999978
  0.3563600000000022  0.7637015958744016  0.5235199999999978
  0.3564300000000031  0.2374358374744006  0.3565600000000018
  0.3564300000000031  0.7625641625255994  0.8565600000000018
  0.4128460095936006  0.5000702051270807  0.2685022584421404
  0.4128460095936006  0.4999297948729193  0.7685022584421404
  0.4128565998211968  0.4953394034125225  0.1020262896943365
  0.4128565998211968  0.5046605965874775  0.6020262896943365
  0.4129074986415020  0.5007191982854380  0.9350216536434033
  0.4129074986415020  0.4992808017145620  0.4350216536434033
  0.4179434001787996  0.9940194034125227  0.1049337103056587
  0.4179434001787996  0.0059805965874773  0.6049337103056587
  0.4181225013585035  0.9978808017145582  0.4368083463565995
  0.4181225013585035  0.0021191982854418  0.9368083463565995
  0.4188639904064004  0.0016102051270792  0.2711077415578629
  0.4188639904064004  0.9983897948729208  0.7711077415578629
  0.4756900000000002  0.2835478735317594  0.0217299999999980
  0.4756900000000002  0.7164521264682406  0.5217299999999980
  0.4759999999999991  0.2860237183760788  0.3537999999999997
  0.4759999999999991  0.7139762816239212  0.8537999999999997
  0.4761600000000001  0.7112915919078375  0.1894100000000023
  0.4761600000000001  0.2887084080921625  0.6894100000000023
  0.5314360417455006  0.9758724657670399  0.4250165729329183
  0.5314360417455006  0.0241275342329601  0.9250165729329183
  0.5321333013212026  0.9815062405166799  0.0902223293591007
  0.5321333013212026  0.0184937594833201  0.5902223293591007
  0.5328806613607995  0.0258187062837223  0.2562812707348172
  0.5328806613607995  0.9741812937162777  0.7562812707348172
  0.5448566986787995  0.4598962405166773  0.1130776706408980
  0.5448566986787995  0.5401037594833227  0.6130776706408980
  0.5451039582545008  0.5462575342329572  0.9450734270670793
  0.5451039582545008  0.4537424657670428  0.4450734270670793
  0.5453893386391968  0.5471687062837205  0.2792587292651802
  0.5453893386391968  0.4528312937162795  0.7792587292651802
  0.6063199999999966  0.1951719001447998  0.0223200000000006
  0.6063199999999966  0.8048280998552002  0.5223200000000006
  0.6063600000000022  0.8094541407999998  0.1883499999999998
  0.6063600000000022  0.1905458592000002  0.6883499999999998
  0.6064500000000024  0.1944522406552025  0.3565899999999971
  0.6064500000000024  0.8055477593447975  0.8565899999999971
  0.6608660874098007  0.4766160786081173  0.2579180388199802
  0.6608660874098007  0.5233839213918827  0.7579180388199802
  0.6613684985671995  0.5219571951258786  0.0912196338049824
  0.6613684985671995  0.4780428048741214  0.5912196338049824
  0.6614454095955011  0.4746411165177591  0.9255224021921222
  0.6614454095955011  0.5253588834822409  0.4255224021921222
  0.6759039125902007  0.9547460786081174  0.2816319611800182
  0.6759039125902007  0.0452539213918826  0.7816319611800182
  0.6759415014328027  0.0437071951258829  0.1147303661950190
  0.6759415014328027  0.9562928048741171  0.6147303661950190
  0.6763345904045011  0.0477388834822392  0.4472175978078781
  0.6763345904045011  0.9522611165177608  0.9472175978078781
  0.7363900000000001  0.3073263391418379  0.3565299999999993
  0.7363900000000001  0.6926736608581621  0.8565299999999993
  0.7364299999999986  0.3051602375824771  0.0243400000000022
  0.7364299999999986  0.6948397624175229  0.5243400000000022
  0.7364499999999978  0.6924265767243227  0.1909300000000016
  0.7364499999999978  0.3075734232756773  0.6909300000000016
  0.7910360437165025  0.9779338474886430  0.4264485431410776
  0.7910360437165025  0.0220661525113570  0.9264485431410776
  0.7916374787495997  0.9755978092246806  0.0936510274390230
  0.7916374787495997  0.0244021907753194  0.5936510274390230
  0.7919565855901993  0.0200016567133190  0.2604802276400164
  0.7919565855901993  0.9799983432866810  0.7604802276400235
  0.8055339562834973  0.5438961525113584  0.9494614568589199
  0.8055339562834973  0.4561038474886416  0.4494614568589199
  0.8062225212503975  0.4523678092246826  0.1153689725609794
  0.8062225212503975  0.5476321907753174  0.6153689725609794
  0.8063534144097986  0.5420816567133215  0.2817997723599817
  0.8063534144097986  0.4579183432866785  0.7817997723599817
  0.8665700000000029  0.8041003904000021  0.1912200000000013
  0.8665700000000029  0.1958996095999979  0.6912200000000013
  0.8666399999999967  0.1903321035255985  0.3608699999999985
  0.8666399999999967  0.8096678964744015  0.8608699999999985
  0.8667599999999993  0.1986882868744004  0.0242599999999982
  0.8667599999999993  0.8013117131255996  0.5242599999999982
  0.9220039904064024  0.4743457072729171  0.2615142241419832
  0.9220039904064024  0.5256542927270829  0.7615142241419832
  0.9235034001788023  0.5298848753874807  0.0939697963816997
  0.9235034001788023  0.4701151246125193  0.5939697963816997
  0.9245125013584996  0.4796291681145632  0.9264456794866831
  0.9245125013584996  0.5203708318854368  0.4264456794866831
  0.9342765998212030  0.0531448753874812  0.1186102036183030
  0.9342765998212030  0.9468551246125188  0.6186102036183030
  0.9342860095935990  0.9503657072729226  0.2853957758580208
  0.9342860095935990  0.0496342927270774  0.7853957758580208
  0.9352274986415026  0.0474108318854434  0.4534943205133217
  0.9352274986415026  0.9525891681145566  0.9534943205133217
  0.9971099999999993  0.7383730400921564  0.1941300000000012
  0.9971099999999993  0.2616269599078365  0.6941300000000012
  0.9971499999999978  0.2668342226239204  0.3599699999999970
  0.9971499999999978  0.7331657773760796  0.8599699999999970
  0.9975799999999992  0.2588088174682426  0.0270900000000012
  0.9975799999999992  0.7411911825317574  0.5270900000000012
 

