POSCAR_PTOPZO_n4_longperiod
 1.000000
   31.9581085999356382    0.0000000000000000    0.0000000000000000
    0.0000000000000000    5.7545110573541276    0.0000000000000000
   -0.1039957172409492    0.0000000000000000   17.4160881158424132
   Pb   Ti   Zr   O 
    48    24    24   144
Direct
    0.0016060708318406    0.7515706235626674    0.0011971846943553    Pb001
    0.1211525489052718    0.7481211188646775    0.9991937767861998    Pb002
    0.2407599990082403    0.7516836902361597    0.9981740369213341    Pb003
    0.3605660276426335    0.7593781696542727    0.9959457471706230    Pb004
    0.4806464284006680    0.7649837376827229    0.9966012248055236    Pb005
    0.6106367646728899    0.7505802925307243    0.9991775884509195    Pb006
    0.7413856817445392    0.7496046913288801    0.0011284109843999    Pb007
    0.8714602723534668    0.7484530041716120    0.0036005201146594    Pb008
    0.0029831150518689    0.1930772179399050    0.1686195267901738    Pb009
    0.1211153573828270    0.1705754906273604    0.1663946208199292    Pb010
    0.2402909081016631    0.1673247644981224    0.1655402468424896    Pb011
    0.3605408277205910    0.1772435737135503    0.1633940513288863    Pb012
    0.4795314321248938    0.2150206836605726    0.1630308222715229    Pb013
    0.6109291287509606    0.2401180096613977    0.1663658905650962    Pb014
    0.7414546921678635    0.2444402768891258    0.1677051581780589    Pb015
    0.8716028117669765    0.2367706209565306    0.1695191560133082    Pb016
    0.0027967182950590    0.7303138599807504    0.3347561147286057    Pb017
    0.1208952930044234    0.7070646361217108    0.3328708699995672    Pb018
    0.2401842939168404    0.6997153896644157    0.3313737325558960    Pb019
    0.3590822220031384    0.7016787794968415    0.3301873546751111    Pb020
    0.4784825628200622    0.7224906505729045    0.3294445654590987    Pb021
    0.6110411818960273    0.7418560530690677    0.3328988853596968    Pb022
    0.7413537399861241    0.7459085291075276    0.3345004549811675    Pb023
    0.8720062509307951    0.7443701523423165    0.3363835900055249    Pb024
    0.0016060708318406    0.2484293764373326    0.5011971846943553    Pb025
    0.1211525489052718    0.2518788811353225    0.4991937767861997    Pb026
    0.2407599990082403    0.2483163097638403    0.4981740369213341    Pb027
    0.3605660276426335    0.2406218303457273    0.4959457471706230    Pb028
    0.4806464284006680    0.2350162623172771    0.4966012248055235    Pb029
    0.6106367646728899    0.2494197074692757    0.4991775884509195    Pb030
    0.7413856817445392    0.2503953086711199    0.5011284109843999    Pb031
    0.8714602723534668    0.2515469958283880    0.5036005201146594    Pb032
    0.0029831150518689    0.8069227820600950    0.6686195267901738    Pb033
    0.1211153573828270    0.8294245093726396    0.6663946208199292    Pb034
    0.2402909081016631    0.8326752355018776    0.6655402468424896    Pb035
    0.3605408277205910    0.8227564262864497    0.6633940513288863    Pb036
    0.4795314321248938    0.7849793163394274    0.6630308222715229    Pb037
    0.6109291287509606    0.7598819903386023    0.6663658905650962    Pb038
    0.7414546921678635    0.7555597231108742    0.6677051581780589    Pb039
    0.8716028117669765    0.7632293790434694    0.6695191560133082    Pb040
    0.0027967182950590    0.2696861400192496    0.8347561147286058    Pb041
    0.1208952930044234    0.2929353638782892    0.8328708699995673    Pb042
    0.2401842939168404    0.3002846103355843    0.8313737325558961    Pb043
    0.3590822220031384    0.2983212205031585    0.8301873546751111    Pb044
    0.4784825628200622    0.2775093494270955    0.8294445654590987    Pb045
    0.6110411818960273    0.2581439469309323    0.8328988853596968    Pb046
    0.7413537399861241    0.2540914708924724    0.8345004549811676    Pb047
    0.8720062509307951    0.2556298476576835    0.8363835900055250    Pb048
    0.0583966313108419    0.2363607811479405    0.0077833486239527    Ti001
    0.1783028809787837    0.2322658295125883    0.0072915320425295    Ti002
    0.2981029055719091    0.2358226634423879    0.0060459453649102    Ti003
    0.4179312581137538    0.2475982102836589    0.0030870993073080    Ti004
    0.0584245417011360    0.6966062516967817    0.1736047962896663    Ti005
    0.1783781763678220    0.6869361215253882    0.1725220262559048    Ti006
    0.2983840963639750    0.6885357648363275    0.1711678149431606    Ti007
    0.4178743683267783    0.6982113629095146    0.1697584333866331    Ti008
    0.0580703581534081    0.2370159744707969    0.3418171741030561    Ti009
    0.1782917042696397    0.2228195141499221    0.3400335452102893    Ti010
    0.2981009613795322    0.2183875783167473    0.3382410352116310    Ti011
    0.4182973933529297    0.2276120989272918    0.3368137695304653    Ti012
    0.0583966313108419    0.7636392188520595    0.5077833486239527    Ti013
    0.1783028809787837    0.7677341704874117    0.5072915320425295    Ti014
    0.2981029055719091    0.7641773365576121    0.5060459453649102    Ti015
    0.4179312581137538    0.7524017897163411    0.5030870993073080    Ti016
    0.0584245417011360    0.3033937483032183    0.6736047962896663    Ti017
    0.1783781763678220    0.3130638784746118    0.6725220262559048    Ti018
    0.2983840963639750    0.3114642351636725    0.6711678149431606    Ti019
    0.4178743683267783    0.3017886370904854    0.6697584333866331    Ti020
    0.0580703581534081    0.7629840255292031    0.8418171741030562    Ti021
    0.1782917042696397    0.7771804858500779    0.8400335452102894    Ti022
    0.2981009613795322    0.7816124216832527    0.8382410352116310    Ti023
    0.4182973933529297    0.7723879010727082    0.8368137695304654    Ti024
    0.5428057384752663    0.2494095032383292    0.0106790577295968    Zr001
    0.6726294498548100    0.2494405042842764    0.0121950608619201    Zr002
    0.8026171435117533    0.2487327849215184    0.0136246596001541    Zr003
    0.9329967242259727    0.2430805956886282    0.0149451597460981    Zr004
    0.5428559347454396    0.7388491255242435    0.1775742568580867    Zr005
    0.6725713525728878    0.7451690174218122    0.1787195069261855    Zr006
    0.8026211078438621    0.7446505504843834    0.1803462712369495    Zr007
    0.9325812026956015    0.7391367643430051    0.1819222769817941    Zr008
    0.5427794833720583    0.2394986904427334    0.3431925633514297    Zr009
    0.6726316078100680    0.2467008189972866    0.3455887979303823    Zr010
    0.8026156901364487    0.2480999519375224    0.3470178938540727    Zr011
    0.9326309178053194    0.2434457809792754    0.3486204557180200    Zr012
    0.5428057384752663    0.7505904967616708    0.5106790577295968    Zr013
    0.6726294498548100    0.7505594957157236    0.5121950608619201    Zr014
    0.8026171435117533    0.7512672150784816    0.5136246596001541    Zr015
    0.9329967242259727    0.7569194043113718    0.5149451597460981    Zr016
    0.5428559347454396    0.2611508744757565    0.6775742568580867    Zr017
    0.6725713525728878    0.2548309825781878    0.6787195069261855    Zr018
    0.8026211078438621    0.2553494495156166    0.6803462712369495    Zr019
    0.9325812026956015    0.2608632356569949    0.6819222769817941    Zr020
    0.5427794833720583    0.7605013095572666    0.8431925633514297    Zr021
    0.6726316078100680    0.7532991810027134    0.8455887979303824    Zr022
    0.8026156901364487    0.7519000480624776    0.8470178938540727    Zr023
    0.9326309178053194    0.7565542190207246    0.8486204557180201    Zr024
    0.9975843949234999    0.2289798246212236    0.0270875225523355     O001
    0.0579096491837134    0.4578918999746726    0.1059586121661198     O002
    0.0581297744939775    0.4735444719705946    0.9408260108616133     O003
    0.1168743120766678    0.1944399095328855    0.0262721214598542     O004
    0.1754303190939979    0.4488199911080706    0.1045049918810932     O005
    0.1753783720455715    0.4670564867235392    0.9401447355245693     O006
    0.2366130407142109    0.2049193735993420    0.0249319979394755     O007
    0.2970025494971651    0.4455577823113650    0.1043917377698165     O008
    0.2966555929577908    0.4721653542032378    0.9396184804696759     O009
    0.3563619333991213    0.1950648546562128    0.0235168563664345     O010
    0.4127861324284083    0.4587306937182554    0.1016519266322078     O011
    0.4126546935393591    0.4785277220426103    0.9349224448821118     O012
    0.4756896691587187    0.2602873874166072    0.0217308194792807     O013
    0.5447432784527564    0.4428306880528190    0.1132106373080646     O014
    0.5450101533932923    0.5379719494907000    0.9442919273704220     O015
    0.6063169061329248    0.1879575011364771    0.0223182537548965     O016
    0.6612672465207226    0.5192605918219364    0.0916175640083239     O017
    0.6615591957216083    0.4746120188375080    0.9244178093558375     O018
    0.7364312888301896    0.3026660617961632    0.0243355185223493     O019
    0.8062024484809953    0.4504521639492971    0.1156443949484824     O020
    0.8057881995328628    0.5416419594901534    0.9485856062302176     O021
    0.8667637025173605    0.1868261674877907    0.0242614225103637     O022
    0.9235667627478961    0.5146947558674135    0.0937931531979928     O023
    0.9247626560929589    0.4659672824390988    0.9262221209303263     O024
    0.9971117234786178    0.7241320305982804    0.1941300604348086     O025
    0.0549986747734934    0.9995827648282365    0.2749436493710604     O026
    0.0547720705985881    0.9588492124963217    0.1083732928398078     O027
    0.1167944751304830    0.7332927700876972    0.1922715589397725     O028
    0.1768408871064082    0.9892200313443205    0.2732156029805211     O029
    0.1767270364602425    0.9494034036025631    0.1075930235682492     O030
    0.2365462394483941    0.7139210142321026    0.1913927772614130     O031
    0.2947971051531013    0.9870000436043647    0.2706174342654605     O032
    0.2944311359263807    0.9452893987733937    0.1050190537646216     O033
    0.3562471330158061    0.7333577218688809    0.1896203976843225     O034
    0.4185460754979005    0.9871928551565681    0.2706260669685108     O035
    0.4180082555841480    0.9574069159092140    0.1053055062479942     O036
    0.4761559458463722    0.6893476655269630    0.1894134984732929     O037
    0.5326702876536658    0.0170427938044604    0.2556308343294872     O038
    0.5322459841946667    0.9644446785025345    0.0900926940606794     O039
    0.6063576009759188    0.7991802423456100    0.1883473264706907     O040
    0.6759174568683619    0.9520828843659892    0.2809302841609878     O041
    0.6760411495656840    0.0410085354631242    0.1143279786694364     O042
    0.7364500960277738    0.6892435951570342    0.1909343080371571     O043
    0.7921923944824627    0.0203404214452512    0.2598807890995261     O044
    0.7916638048021341    0.9736800115116928    0.0933819511476557     O045
    0.8665726371671667    0.7992726823163672    0.1912212782468572     O046
    0.9346027457571111    0.9488375727361706    0.2849891215621553     O047
    0.9342063664892919    0.0379583428711534    0.1187946310601546     O048
    0.9971458427411406    0.2824241732453636    0.3599674135233428     O049
    0.0581297744939775    0.5264555280294054    0.4408260108616133     O050
    0.0574796787484786    0.4991902518786198    0.2740185424176643     O051
    0.1168943706978496    0.2612158207253010    0.3597757184909369     O052
    0.1753783720455715    0.5329435132764608    0.4401447355245693     O053
    0.1752105228170322    0.4895007425581319    0.2724086778897146     O054
    0.2366720996240161    0.2674266567202004    0.3572854715909272     O055
    0.2966555929577908    0.5278346457967622    0.4396184804696758     O056
    0.2969777104319249    0.4884057509527899    0.2719807535023691     O057
    0.3564291860776692    0.2473063776941409    0.3565555123357598     O058
    0.4126546935393591    0.5214722779573897    0.4349224448821118     O059
    0.4131648588259225    0.4856493427165667    0.2689839546975819     O060
    0.4759985630965460    0.2873427440522427    0.3537955489050971     O061
    0.5450101533932923    0.4620280505093000    0.4442919273704219     O062
    0.5455997360329121    0.5383952694515450    0.2799120783469390     O063
    0.6064509466685806    0.1913866997348173    0.3565941805724789     O064
    0.6615591957216083    0.5253879811624920    0.4244178093558374     O065
    0.6608525906719365    0.4739470847159346    0.2586161804648484     O066
    0.7363924649345179    0.3066335240526818    0.3565259736769164     O067
    0.8057881995328628    0.4583580405098466    0.4485856062302175     O068
    0.8061202226127619    0.5424207790588973    0.2823957516277886     O069
    0.8666429993883611    0.1973593532037974    0.3608691906566435     O070
    0.9247626560929589    0.5340327175609012    0.4262221209303262     O071
    0.9216863456487943    0.4728163616419998    0.2619242915853163     O072
    0.9975843949234999    0.7710201753787764    0.5270875225523355     O073
    0.0547720705985881    0.0411507875036783    0.6083732928398078     O074
    0.0546618996300694    0.0265208402986126    0.4400862656547275     O075
    0.1168743120766678    0.8055600904671145    0.5262721214598542     O076
    0.1767270364602425    0.0505965963974369    0.6075930235682492     O077
    0.1768189328927932    0.0323860440888915    0.4396092283046967     O078
    0.2366130407142109    0.7950806264006580    0.5249319979394755     O079
    0.2944311359263807    0.0547106012266063    0.6050190537646216     O080
    0.2950043771361877    0.0268685363572310    0.4375416223037901     O081
    0.3563619333991213    0.8049351453437872    0.5235168563664345     O082
    0.4180082555841480    0.0425930840907860    0.6053055062479942     O083
    0.4183723073200127    0.0200678246818704    0.4369068251825751     O084
    0.4756896691587187    0.7397126125833928    0.5217308194792807     O085
    0.5322459841946667    0.0355553214974655    0.5900926940606794     O086
    0.5315348891560916    0.9841623309788723    0.4258023842535508     O087
    0.6063169061329248    0.8120424988635229    0.5223182537548965     O088
    0.6760411495656840    0.9589914645368758    0.6143279786694364     O089
    0.6762148528706504    0.0477732848013908    0.4483221547864459     O090
    0.7364312888301896    0.6973339382038368    0.5243355185223493     O091
    0.7916638048021341    0.0263199884883072    0.5933819511476557     O092
    0.7907783061589200    0.9801953734641735    0.4273189258423641     O093
    0.8667637025173605    0.8131738325122093    0.5242614225103637     O094
    0.9342063664892919    0.9620416571288466    0.6187946310601546     O095
    0.9349760834572081    0.0610705648684338    0.4537246680546758     O096
    0.9971117234786178    0.2758679694017196    0.6941300604348086     O097
    0.0574796787484786    0.5008097481213802    0.7740185424176644     O098
    0.0579096491837134    0.5421081000253274    0.6059586121661198     O099
    0.1167944751304830    0.2667072299123028    0.6922715589397725     O100
    0.1752105228170322    0.5104992574418681    0.7724086778897146     O101
    0.1754303190939979    0.5511800088919294    0.6045049918810932     O102
    0.2365462394483941    0.2860789857678974    0.6913927772614130     O103
    0.2969777104319249    0.5115942490472101    0.7719807535023691     O104
    0.2970025494971651    0.5544422176886350    0.6043917377698165     O105
    0.3562471330158061    0.2666422781311191    0.6896203976843225     O106
    0.4131648588259225    0.5143506572834333    0.7689839546975819     O107
    0.4127861324284083    0.5412693062817446    0.6016519266322078     O108
    0.4761559458463722    0.3106523344730370    0.6894134984732929     O109
    0.5455997360329121    0.4616047305484550    0.7799120783469391     O110
    0.5447432784527564    0.5571693119471810    0.6132106373080646     O111
    0.6063576009759188    0.2008197576543900    0.6883473264706907     O112
    0.6608525906719365    0.5260529152840654    0.7586161804648484     O113
    0.6612672465207226    0.4807394081780636    0.5916175640083239     O114
    0.7364500960277738    0.3107564048429658    0.6909343080371571     O115
    0.8061202226127619    0.4575792209411027    0.7823957516277886     O116
    0.8062024484809953    0.5495478360507029    0.6156443949484824     O117
    0.8665726371671667    0.2007273176836328    0.6912212782468572     O118
    0.9216863456487943    0.5271836383580002    0.7619242915853164     O119
    0.9235667627478961    0.4853052441325865    0.5937931531979928     O120
    0.9971458427411406    0.7175758267546364    0.8599674135233428     O121
    0.0546618996300694    0.9734791597013874    0.9400862656547275     O122
    0.0549986747734934    0.0004172351717635    0.7749436493710604     O123
    0.1168943706978496    0.7387841792746990    0.8597757184909369     O124
    0.1768189328927932    0.9676139559111085    0.9396092283046968     O125
    0.1768408871064082    0.0107799686556795    0.7732156029805211     O126
    0.2366720996240161    0.7325733432797996    0.8572854715909273     O127
    0.2950043771361877    0.9731314636427690    0.9375416223037902     O128
    0.2947971051531013    0.0129999563956353    0.7706174342654606     O129
    0.3564291860776692    0.7526936223058591    0.8565555123357598     O130
    0.4183723073200127    0.9799321753181296    0.9369068251825752     O131
    0.4185460754979005    0.0128071448434319    0.7706260669685108     O132
    0.4759985630965460    0.7126572559477573    0.8537955489050972     O133
    0.5315348891560916    0.0158376690211277    0.9258023842535508     O134
    0.5326702876536658    0.9829572061955396    0.7556308343294873     O135
    0.6064509466685806    0.8086133002651827    0.8565941805724790     O136
    0.6762148528706504    0.9522267151986092    0.9483221547864460     O137
    0.6759174568683619    0.0479171156340108    0.7809302841609878     O138
    0.7363924649345179    0.6933664759473182    0.8565259736769164     O139
    0.7907783061589200    0.0198046265358265    0.9273189258423642     O140
    0.7921923944824627    0.9796595785547488    0.7598807890995261     O141
    0.8666429993883611    0.8026406467962026    0.8608691906566435     O142
    0.9349760834572081    0.9389294351315662    0.9537246680546758     O143
    0.9346027457571111    0.0511624272638294    0.7849891215621554     O144
