POSCAR_PTOPZO_n1_compact
 1.000000
    8.0012407268865289    0.0000000000000000    0.0000000000000000
    0.0000000000000000    5.7268239791866904    0.0000000000000000
   -0.0402922095092752    0.0000000000000000    5.7905578179746122
   Pb   Ti   Zr   O 
     4     2     2    12
Direct
    0.9960193195873378    0.7471926251200109    0.0505241578060569    Pb001
    0.4701548439128871    0.7455496137573703    0.0508662739314143    Pb002
    0.9960193195873378    0.2528073748799891    0.5505241578060568    Pb003
    0.4701548439128871    0.2544503862426297    0.5508662739314142    Pb004
    0.2465588890910055    0.7521216608950129    0.5342908364717616    Ti001
    0.2465588890910055    0.2478783391049871    0.0342908364717616    Ti002
    0.7470829377536982    0.7512342295952701    0.5100144906055231    Zr001
    0.7470829377536982    0.2487657704047299    0.0100144906055233    Zr002
    0.0148259824275788    0.7931257696053071    0.4767645330629811     O001
    0.2396042292139787    0.4969795272103958    0.7298719212625264     O002
    0.2736643055063486    0.9947110396231775    0.7422115215949769     O003
    0.4917452003905420    0.7165005849799932    0.4747086822689517     O004
    0.7880066850690426    0.5251898194350759    0.7725778106360937     O005
    0.7420490610000575    0.0511203062945413    0.6974183922988146     O006
    0.0148259824275788    0.2068742303946929    0.9767645330629811     O007
    0.2736643055063486    0.0052889603768225    0.2422115215949770     O008
    0.2396042292139787    0.5030204727896042    0.2298719212625265     O009
    0.4917452003905420    0.2834994150200068    0.9747086822689517     O010
    0.7420490610000575    0.9488796937054587    0.1974183922988147     O011
    0.7880066850690426    0.4748101805649241    0.2725778106360937     O012
