POSCAR_BTO_BZO_n4_scan_SM2_1_C2_1                  
   1.00000000000000     
    31.9575713780101687    0.0000000000000000   -0.1906407065275373
     0.0000000000000009    5.7544800000000000    0.0000000000000004
     0.0000000000000000    0.0000000000000000   17.4163800000000002
   Ba   Ti   Zr   O 
    48    24    24   144
Direct
  0.0016099999999994  0.7515700000000010  0.0011999999999972
  0.0016099999999994  0.2484299999999990  0.5011999999999972
  0.0028000000000006  0.7303100000000029  0.3347600000000028
  0.0028000000000006  0.2696899999999971  0.8347600000000028
  0.0029800000000009  0.1930800000000019  0.1686199999999971
  0.0029800000000009  0.8069199999999981  0.6686199999999971
  0.1208900000000028  0.7070599999999985  0.3328699999999998
  0.1208900000000028  0.2929400000000015  0.8328699999999998
  0.1211100000000016  0.1705699999999979  0.1663899999999998
  0.1211100000000016  0.8294300000000021  0.6663899999999998
  0.1211500000000001  0.7481200000000001  0.9991899999999987
  0.1211500000000001  0.2518799999999999  0.4991899999999987
  0.2401800000000023  0.6997199999999992  0.3313699999999997
  0.2401800000000023  0.3002800000000008  0.8313699999999997
  0.2402900000000017  0.1673299999999998  0.1655400000000000
  0.2402900000000017  0.8326700000000002  0.6655400000000000
  0.2407600000000016  0.7516800000000003  0.9981700000000018
  0.2407600000000016  0.2483199999999997  0.4981700000000018
  0.3590799999999987  0.7016800000000032  0.3301900000000018
  0.3590799999999987  0.2983199999999968  0.8301900000000018
  0.3605400000000003  0.1772399999999976  0.1633899999999997
  0.3605400000000003  0.8227600000000024  0.6633899999999997
  0.3605700000000027  0.7593800000000002  0.9959500000000006
  0.3605700000000027  0.2406199999999998  0.4959500000000006
  0.4784799999999976  0.7224900000000005  0.3294500000000014
  0.4784799999999976  0.2775099999999995  0.8294500000000014
  0.4795299999999969  0.2150200000000027  0.1630299999999991
  0.4795299999999969  0.7849799999999973  0.6630299999999991
  0.4806499999999971  0.7649800000000013  0.9966000000000008
  0.4806499999999971  0.2350199999999987  0.4966000000000008
  0.6106399999999965  0.7505799999999994  0.9991800000000026
  0.6106399999999965  0.2494200000000006  0.4991800000000026
  0.6109300000000033  0.2401199999999974  0.1663700000000006
  0.6109300000000033  0.7598800000000026  0.6663700000000006
  0.6110400000000027  0.7418600000000026  0.3329000000000022
  0.6110400000000027  0.2581399999999974  0.8329000000000022
  0.7413499999999971  0.7459100000000021  0.3344999999999985
  0.7413499999999971  0.2540899999999979  0.8344999999999985
  0.7413900000000027  0.7496099999999970  0.0011300000000034
  0.7413900000000027  0.2503900000000030  0.5011300000000034
  0.7414500000000004  0.2444399999999973  0.1677000000000035
  0.7414500000000004  0.7555600000000027  0.6676999999999964
  0.8714599999999990  0.7484499999999983  0.0035999999999987
  0.8714599999999990  0.2515500000000017  0.5035999999999987
  0.8716000000000008  0.2367699999999999  0.1695199999999986
  0.8716000000000008  0.7632300000000001  0.6695199999999986
  0.8720100000000031  0.7443700000000035  0.3363799999999983
  0.8720100000000031  0.2556299999999965  0.8363799999999983
  0.0580700000000007  0.2370200000000011  0.3418199999999985
  0.0580700000000007  0.7629799999999989  0.8418199999999985
  0.0583999999999989  0.2363599999999977  0.0077799999999968
  0.0583999999999989  0.7636400000000023  0.5077799999999968
  0.0584300000000013  0.6966099999999997  0.1736099999999965
  0.0584300000000013  0.3033900000000003  0.6736099999999965
  0.1782899999999970  0.2228199999999987  0.3400299999999987
  0.1782899999999970  0.7771800000000013  0.8400299999999987
  0.1783000000000001  0.2322699999999998  0.0072899999999976
  0.1783000000000001  0.7677300000000002  0.5072899999999976
  0.1783799999999971  0.6869399999999999  0.1725199999999987
  0.1783799999999971  0.3130600000000001  0.6725199999999987
  0.2980999999999980  0.2358199999999968  0.0060500000000019
  0.2980999999999980  0.7641800000000032  0.5060500000000019
  0.2980999999999980  0.2183899999999994  0.3382399999999990
  0.2980999999999980  0.7816100000000006  0.8382399999999990
  0.2983800000000016  0.6885400000000033  0.1711699999999965
  0.2983800000000016  0.3114599999999967  0.6711700000000036
  0.4178700000000006  0.6982100000000031  0.1697599999999966
  0.4178700000000006  0.3017899999999969  0.6697599999999966
  0.4179299999999984  0.2475999999999985  0.0030900000000003
  0.4179299999999984  0.7524000000000015  0.5030900000000003
  0.4183000000000021  0.2276099999999985  0.3368099999999998
  0.4183000000000021  0.7723900000000015  0.8368099999999998
  0.5427800000000005  0.2394999999999996  0.3431899999999999
  0.5427800000000005  0.7605000000000004  0.8431899999999999
  0.5428100000000029  0.2494099999999975  0.0106800000000007
  0.5428100000000029  0.7505900000000025  0.5106800000000007
  0.5428599999999975  0.7388499999999993  0.1775700000000029
  0.5428599999999975  0.2611500000000007  0.6775700000000029
  0.6725700000000003  0.7451700000000017  0.1787199999999984
  0.6725700000000003  0.2548299999999983  0.6787199999999984
  0.6726299999999981  0.2494399999999999  0.0122000000000000
  0.6726299999999981  0.7505600000000001  0.5122000000000000
  0.6726299999999981  0.2466999999999970  0.3455900000000014
  0.6726299999999981  0.7533000000000030  0.8455900000000014
  0.8026199999999974  0.2487300000000019  0.0136200000000031
  0.8026199999999974  0.7512699999999981  0.5136200000000031
  0.8026199999999974  0.7446500000000000  0.1803499999999971
  0.8026199999999974  0.2553500000000000  0.6803499999999971
  0.8026199999999974  0.2481000000000009  0.3470200000000006
  0.8026199999999974  0.7518999999999991  0.8470200000000006
  0.9325800000000015  0.7391399999999990  0.1819199999999981
  0.9325800000000015  0.2608600000000010  0.6819199999999981
  0.9326300000000032  0.2434500000000028  0.3486199999999968
  0.9326300000000032  0.7565499999999972  0.8486199999999968
  0.9329999999999998  0.2430799999999991  0.0149400000000028
  0.9329999999999998  0.7569200000000009  0.5149400000000028
  0.0546599999999984  0.0265199999999979  0.4400899999999979
  0.0546599999999984  0.9734800000000021  0.9400899999999979
  0.0547699999999978  0.9588499999999982  0.1083700000000007
  0.0547699999999978  0.0411500000000018  0.6083700000000007
  0.0549999999999997  0.9995800000000017  0.2749400000000009
  0.0549999999999997  0.0004199999999983  0.7749400000000009
  0.0574799999999982  0.4991899999999987  0.2740200000000002
  0.0574799999999982  0.5008100000000013  0.7740200000000002
  0.0579099999999997  0.4578899999999990  0.1059600000000032
  0.0579099999999997  0.5421100000000010  0.6059600000000032
  0.0581299999999985  0.4735399999999998  0.9408299999999983
  0.0581299999999985  0.5264600000000002  0.4408299999999983
  0.1167900000000017  0.7332899999999967  0.1922700000000006
  0.1167900000000017  0.2667100000000033  0.6922700000000006
  0.1168699999999987  0.1944400000000002  0.0262699999999967
  0.1168699999999987  0.8055599999999998  0.5262699999999967
  0.1168899999999979  0.2612200000000016  0.3597800000000007
  0.1168899999999979  0.7387799999999984  0.8597800000000007
  0.1752099999999999  0.4894999999999996  0.2724100000000007
  0.1752099999999999  0.5105000000000004  0.7724100000000007
  0.1753799999999970  0.4670599999999965  0.9401399999999995
  0.1753799999999970  0.5329399999999964  0.4401399999999995
  0.1754299999999986  0.4488199999999978  0.1045099999999977
  0.1754299999999986  0.5511800000000022  0.6045099999999977
  0.1767299999999992  0.9493999999999971  0.1075900000000019
  0.1767299999999992  0.0506000000000029  0.6075900000000019
  0.1768199999999993  0.0323899999999995  0.4396100000000018
  0.1768199999999993  0.9676100000000005  0.9396100000000018
  0.1768399999999986  0.9892200000000031  0.2732200000000020
  0.1768399999999986  0.0107799999999969  0.7732200000000020
  0.2365500000000011  0.7139200000000017  0.1913899999999984
  0.2365500000000011  0.2860799999999983  0.6913899999999984
  0.2366099999999989  0.2049200000000013  0.0249299999999977
  0.2366099999999989  0.7950799999999987  0.5249299999999977
  0.2366699999999966  0.2674299999999974  0.3572800000000029
  0.2366699999999966  0.7325700000000026  0.8572800000000029
  0.2944299999999984  0.9452900000000000  0.1050200000000032
  0.2944299999999984  0.0547100000000000  0.6050200000000032
  0.2948000000000022  0.9870000000000019  0.2706200000000010
  0.2948000000000022  0.0129999999999981  0.7706200000000010
  0.2950000000000017  0.0268700000000024  0.4375399999999985
  0.2950000000000017  0.9731299999999976  0.9375399999999985
  0.2966600000000028  0.4721600000000024  0.9396199999999979
  0.2966600000000028  0.5278399999999976  0.4396199999999979
  0.2969799999999978  0.4884100000000018  0.2719799999999992
  0.2969799999999978  0.5115899999999982  0.7719799999999992
  0.2969999999999970  0.4455600000000004  0.1043900000000022
  0.2969999999999970  0.5544399999999996  0.6043900000000022
  0.3562500000000028  0.7333599999999976  0.1896199999999979
  0.3562500000000028  0.2666400000000024  0.6896199999999979
  0.3563600000000022  0.1950700000000012  0.0235199999999978
  0.3563600000000022  0.8049299999999988  0.5235199999999978
  0.3564300000000031  0.2473099999999988  0.3565600000000018
  0.3564300000000031  0.7526900000000012  0.8565600000000018
  0.4126600000000025  0.4785299999999992  0.9349199999999982
  0.4126600000000025  0.5214700000000008  0.4349199999999982
  0.4127900000000011  0.4587300000000027  0.1016499999999994
  0.4127900000000011  0.5412699999999973  0.6016499999999994
  0.4131599999999978  0.4856499999999997  0.2689799999999991
  0.4131599999999978  0.5143500000000003  0.7689799999999991
  0.4180100000000024  0.9574100000000030  0.1053100000000029
  0.4180100000000024  0.0425899999999970  0.6053100000000029
  0.4183700000000030  0.0200699999999969  0.4369099999999975
  0.4183700000000030  0.9799300000000031  0.9369099999999975
  0.4185500000000033  0.9871899999999982  0.2706299999999970
  0.4185500000000033  0.0128100000000018  0.7706299999999970
  0.4756900000000002  0.2602899999999977  0.0217299999999980
  0.4756900000000002  0.7397100000000023  0.5217299999999980
  0.4759999999999991  0.2873400000000004  0.3537999999999997
  0.4759999999999991  0.7126599999999996  0.8537999999999997
  0.4761600000000001  0.6893499999999975  0.1894100000000023
  0.4761600000000001  0.3106500000000025  0.6894100000000023
  0.5315299999999965  0.9841600000000028  0.4258000000000024
  0.5315299999999965  0.0158399999999972  0.9258000000000024
  0.5322499999999977  0.9644400000000033  0.0900900000000036
  0.5322499999999977  0.0355599999999967  0.5900900000000036
  0.5326700000000031  0.0170400000000015  0.2556299999999965
  0.5326700000000031  0.9829599999999985  0.7556299999999965
  0.5447399999999973  0.4428300000000007  0.1132100000000023
  0.5447399999999973  0.5571699999999993  0.6132100000000023
  0.5450099999999978  0.5379700000000014  0.9442900000000023
  0.5450099999999978  0.4620299999999986  0.4442900000000023
  0.5456000000000003  0.5383899999999997  0.2799100000000010
  0.5456000000000003  0.4616100000000003  0.7799100000000010
  0.6063199999999966  0.1879599999999968  0.0223200000000006
  0.6063199999999966  0.8120400000000032  0.5223200000000006
  0.6063600000000022  0.7991799999999998  0.1883499999999998
  0.6063600000000022  0.2008200000000002  0.6883499999999998
  0.6064500000000024  0.1913899999999984  0.3565899999999971
  0.6064500000000024  0.8086100000000016  0.8565899999999971
  0.6608500000000035  0.4739500000000021  0.2586200000000005
  0.6608500000000035  0.5260499999999979  0.7586200000000005
  0.6612700000000018  0.5192600000000027  0.0916199999999989
  0.6612700000000018  0.4807399999999973  0.5916199999999989
  0.6615600000000015  0.4746099999999984  0.9244199999999978
  0.6615600000000015  0.5253900000000016  0.4244199999999978
  0.6759199999999979  0.9520800000000023  0.2809299999999979
  0.6759199999999979  0.0479199999999977  0.7809299999999979
  0.6760400000000004  0.0410100000000000  0.1143300000000025
  0.6760400000000004  0.9589900000000000  0.6143300000000025
  0.6762200000000007  0.0477699999999999  0.4483200000000025
  0.6762200000000007  0.9522300000000001  0.9483200000000025
  0.7363900000000001  0.3066299999999984  0.3565299999999993
  0.7363900000000001  0.6933700000000016  0.8565299999999993
  0.7364299999999986  0.3026699999999991  0.0243400000000022
  0.7364299999999986  0.6973300000000009  0.5243400000000022
  0.7364499999999978  0.6892399999999981  0.1909300000000016
  0.7364499999999978  0.3107600000000019  0.6909300000000016
  0.7907799999999980  0.9801900000000003  0.4273200000000017
  0.7907799999999980  0.0198099999999997  0.9273200000000017
  0.7916600000000003  0.9736800000000017  0.0933800000000033
  0.7916600000000003  0.0263199999999983  0.5933800000000033
  0.7921899999999980  0.0203399999999974  0.2598800000000026
  0.7921899999999980  0.9796600000000026  0.7598800000000026
  0.8057900000000018  0.5416400000000010  0.9485900000000029
  0.8057900000000018  0.4583599999999990  0.4485900000000029
  0.8061199999999999  0.5424199999999999  0.2824000000000026
  0.8061199999999999  0.4575800000000001  0.7824000000000026
  0.8061999999999969  0.4504500000000036  0.1156399999999991
  0.8061999999999969  0.5495499999999964  0.6156399999999991
  0.8665700000000029  0.7992699999999999  0.1912200000000013
  0.8665700000000029  0.2007300000000001  0.6912200000000013
  0.8666399999999967  0.1973600000000033  0.3608699999999985
  0.8666399999999967  0.8026399999999967  0.8608699999999985
  0.8667599999999993  0.1868300000000005  0.0242599999999982
  0.8667599999999993  0.8131699999999995  0.5242599999999982
  0.9216899999999981  0.4728199999999987  0.2619200000000035
  0.9216899999999981  0.5271800000000013  0.7619200000000035
  0.9235699999999980  0.5146999999999977  0.0937899999999985
  0.9235699999999980  0.4853000000000023  0.5937899999999985
  0.9247599999999991  0.4659699999999987  0.9262200000000007
  0.9247599999999991  0.5340300000000013  0.4262200000000007
  0.9342100000000002  0.0379599999999982  0.1187899999999971
  0.9342100000000002  0.9620400000000018  0.6187899999999971
  0.9346000000000032  0.9488399999999970  0.2849900000000005
  0.9346000000000032  0.0511600000000030  0.7849900000000005
  0.9349800000000030  0.0610700000000008  0.4537199999999970
  0.9349800000000030  0.9389299999999992  0.9537199999999970
  0.9971099999999993  0.7241300000000024  0.1941300000000012
  0.9971099999999993  0.2758699999999976  0.6941300000000012
  0.9971499999999978  0.2824200000000019  0.3599699999999970
  0.9971499999999978  0.7175799999999981  0.8599699999999970
  0.9975799999999992  0.2289800000000000  0.0270900000000012
  0.9975799999999992  0.7710200000000000  0.5270900000000012

