POSCAR_PTOPZO_n4_compact
 1.000000
    4.1460209199850260   -3.9855135214888167    0.0000000000000000
    4.1460209199850260    3.9855135214888167    0.0000000000000000
   -0.1599482692574436    0.0000000000000000   32.0982388629094970
   Pb   Ti   Zr   O 
    16     8     8    48
Direct
    0.0579540769539975    0.0579540769539975    0.0058542337717142    Pb001
    0.0522976558562043    0.0522976558562043    0.1262135562383335    Pb002
    0.0463316949712330    0.0463316949712330    0.2465110814731802    Pb003
    0.0416530188300400    0.0416530188300400    0.3658250014233104    Pb004
    0.0333193165586750    0.0333193165586750    0.4847040579621266    Pb005
    0.0258107876923966    0.0258107876923966    0.6176404761835526    Pb006
    0.0271195924540245    0.0271195924540245    0.7434884673400146    Pb007
    0.0378323761544799    0.0378323761544799    0.8793630182127784    Pb008
    0.5503295585926011    0.5503295585926011    0.0096053939049412    Pb009
    0.5515469752701632    0.5515469752701632    0.1276338328008109    Pb010
    0.5464725981564698    0.5464725981564698    0.2464482748299873    Pb011
    0.5412598121292085    0.5412598121292085    0.3659401137440383    Pb012
    0.5292927674309809    0.5292927674309809    0.4841393285980190    Pb013
    0.5134428184333717    0.5134428184333717    0.6134968860292883    Pb014
    0.5322722414879308    0.5322722414879308    0.7482173037942345    Pb015
    0.5306843290816587    0.5306843290816587    0.8735170319131597    Pb016
    0.0318663582753376    0.5345908281550675    0.0687717444401912    Ti001
    0.0284741079387063    0.5274558321115206    0.1886502194802447    Ti002
    0.0227849566488205    0.5226331874510775    0.3085038981085191    Ti003
    0.0156897786563805    0.5188493482862169    0.4285738756935303    Ti004
    0.5345908281550675    0.0318663582753376    0.0687717444401912    Ti005
    0.5274558321115206    0.0284741079387063    0.1886502194802447    Ti006
    0.5226331874510775    0.0227849566488205    0.3085038981085191    Ti007
    0.5188493482862169    0.0156897786563805    0.4285738756935303    Ti008
    0.0056974202166133    0.5026147698523429    0.5540497661971525    Zr001
    0.0084974182589621    0.5114346080060768    0.6838183920782724    Zr002
    0.0166208513158852    0.5149093066880821    0.8137708581221472    Zr003
    0.0234102015784858    0.5249527260478855    0.9434094307255804    Zr004
    0.5026147698523429    0.0056974202166133    0.5540497661971525    Zr005
    0.5114346080060768    0.0084974182589621    0.6838183920782724    Zr006
    0.5149093066880821    0.0166208513158852    0.8137708581221472    Zr007
    0.5249527260478855    0.0234102015784858    0.9434094307255804    Zr008
    0.9777394648586369    0.5098759405113921    0.0106973201334952     O001
    0.7472568878649570    0.2499428496185276    0.0708021820632183     O002
    0.2483435039565054    0.2483435039565054    0.0695157784205023     O003
    0.9926606124268533    0.4844455444416484    0.1304580758004619     O004
    0.7433123145460885    0.2423115359856782    0.1909578430157666     O005
    0.2424705479616061    0.2424705479616061    0.1916811925360165     O006
    0.9814705949505298    0.4856139074921233    0.2502040745354464     O007
    0.7373362164802801    0.2377911829255768    0.3107049407624842     O008
    0.2356561684673013    0.2356561684673013    0.3100479863345242     O009
    0.9816478904672298    0.4746651810772421    0.3699566560372318     O010
    0.7339997125382001    0.2322965475285772    0.4306838282841597     O011
    0.2338073352140351    0.2338073352140351    0.4321143807989786     O012
    0.9660582078332711    0.4870307881306604    0.4896002198020711     O013
    0.7006282086764273    0.2889405608447860    0.5572335460816047     O014
    0.1846493438095964    0.1846493438095964    0.5507706732330248     O015
    0.0341411327123498    0.4505420246701918    0.6200829695758825     O016
    0.7966905292301051    0.2074474577054984    0.6859506659304697     O017
    0.2743035454579899    0.2743035454579899    0.6985457900033792     O018
    0.9571213125874042    0.5355574946441376    0.7501585552270311     O019
    0.7107469588842150    0.3049737651356210    0.8161412305990580     O020
    0.2040455099414871    0.2040455099414871    0.8092023135556018     O021
    0.0426501891223767    0.4648565178422219    0.8801999990218902     O022
    0.8115317328538297    0.2169786638440100    0.9443563211010114     O023
    0.2919113689284674    0.2919113689284674    0.9577176711899112     O024
    0.5098759405113920    0.9777394648586371    0.0106973201334952     O025
    0.2499428496185276    0.7472568878649570    0.0708021820632183     O026
    0.7487926537792085    0.7487926537792085    0.0737434203529901     O027
    0.4844455444416484    0.9926606124268533    0.1304580758004619     O028
    0.2423115359856782    0.7433123145460885    0.1909578430157666     O029
    0.7405903641149010    0.7405903641149010    0.1903236603765635     O030
    0.4856139074921233    0.9814705949505298    0.2502040745354464     O031
    0.2377911829255768    0.7373362164802801    0.3107049407624842     O032
    0.7369708653674323    0.7369708653674323    0.3113056777720331     O033
    0.4746651810772421    0.9816478904672297    0.3699566560372318     O034
    0.2322965475285772    0.7339997125382001    0.4306838282841597     O035
    0.7296262345107749    0.7296262345107749    0.4286050117075889     O036
    0.4870307881306604    0.9660582078332711    0.4896002198020711     O037
    0.2889405608447860    0.7006282086764273    0.5572335460816047     O038
    0.7674064302990651    0.7674064302990651    0.5655949610575133     O039
    0.4505420246701918    0.0341411327123499    0.6200829695758825     O040
    0.2074474577054985    0.7966905292301050    0.6859506659304697     O041
    0.6974762369367049    0.6974762369367049    0.6792373641216541     O042
    0.5355574946441375    0.9571213125874043    0.7501585552270311     O043
    0.3049737651356210    0.7107469588842150    0.8161412305990580     O044
    0.7810063808964323    0.7810063808964323    0.8286017823837354     O045
    0.4648565178422219    0.0426501891223767    0.8801999990218902     O046
    0.2169786638440100    0.8115317328538296    0.9443563211010114     O047
    0.7098167313518395    0.7098167313518395    0.9435580128507935     O048
